# pbepbe/3-21g/auto

vasp2com_ZSM5

0 1
Si 12.045170  7.372581  5.730058
Si  4.623904  3.468257  7.210443
Si 15.372579  8.591142  6.213297
Si 16.239110  9.392915  8.866309
Si 18.518835  8.957445 11.072086
Si 13.742202 16.154526 10.617249
Si 16.283148  6.216826  3.950049
Si 18.722807  7.513100  2.225245
Si 17.792222  6.811300 12.824226
Si 14.632354  6.469443 12.791157
Si 13.541233  7.177007  2.460864
Si 11.127995  6.821039  4.381284
Si 15.491079 11.112932  4.495426
Si 18.532046 10.723375  2.596474
Si 17.606665 11.322817 12.855028
Si 14.652771 11.284258 12.880497
Si 13.786240 10.482485  2.199109
Si 11.506515 10.917955  4.404886
Si  8.510385  8.957445  8.929514
Si  5.364129  8.591142  0.453903
Si  2.410235  8.552583  0.479372
Si  1.484854  9.152025 10.737926
Si  4.525821  8.762468  8.838974
Si  8.888905 13.054361  8.953116
Si  6.475667 12.698393 10.873536
Si  5.384546 13.405957  0.543243
Si  2.224678 13.064100  0.510174
Si  1.294093 12.362300 11.109155
Si  3.733752 13.658574  9.384351
Si  6.274698  3.720874  2.717151
Si  8.714357  2.424600  4.441955
Si 12.418685  8.552583  6.187828
Si 11.493304  9.152025  9.263674
Si 14.534271  8.762468 11.162626
Si 16.239110  0.544785  8.866309
Si 16.283148  3.720874  3.950049
Si 18.722807  2.424600  2.225245
Si 17.792222  3.126400 12.824226
Si 14.632354  3.468257 12.791157
Si 13.541233  2.760693  2.460864
Si 11.127995  3.116661  4.381284
Si 15.491079 18.700168  4.495426
Si 18.532046 19.089725  2.596474
Si 17.606665 18.490283 12.855028
Si 14.652771 18.528842 12.880497
Si 13.786240 19.330615  2.199109
Si 11.506515 18.895145  4.404886
Si 18.518835  0.980255 11.072086
Si 15.372579  1.346558  6.213297
Si 18.897355 13.054361 11.048484
Si 12.418685  1.385117  6.187828
Si 11.493304  0.785675  9.263674
Si 14.534271  1.175232 11.162626
Si 18.897355 16.758739 11.048484
Si 16.484117 17.114707  9.128064
Si 15.392996 16.407143  6.123957
Si 12.233128 16.749000  6.157026
Si 11.302543 17.450800  8.892445
Si 13.742202 13.658574 10.617249
Si 11.302543 12.362300  8.892445
Si 12.233128 13.064100  6.157026
Si 15.392996 13.405957  6.123957
Si 16.484117 12.698393  9.128064
Si  7.783772  3.126400  7.177374
Si  6.230660  9.392915 11.135291
Si  3.532783  2.760693  4.206336
Si  1.498065 10.917955  2.262314
Si  4.644321 11.284258  7.121103
Si  7.598215 11.322817  7.146572
Si  8.523596 10.723375  4.070726
Si  6.274698  6.216826  2.717151
Si  8.714357  7.513100  4.441955
Si  7.783772  6.811300  7.177374
Si  8.510385  0.980255  8.929514
Si  6.230660  0.544785 11.135291
Si  5.364129  1.346558  0.453903
Si  2.410235  1.385117  0.479372
Si  1.484854  0.785675 10.737926
Si  4.525821  1.175232  8.838974
Si  1.119545  3.116661  2.285916
Si  8.888905 16.758739  8.953116
Si  6.475667 17.114707 10.873536
Si  5.482629 11.112932  2.171774
Si  1.119545  6.821039  2.285916
Si  3.532783  7.177007  4.206336
Si  4.623904  6.469443  7.210443
Si  3.733752 16.154526  9.384351
Si  1.294093 17.450800 11.109155
Si  5.384546 16.407143  0.543243
Si  3.777790 10.482485  4.468091
Si  2.224678 16.749000  0.510174
Si  5.482629 18.700168  2.171774
Si  1.498065 18.895145  2.262314
Si  3.777790 19.330615  4.468091
Si  4.644321 18.528842  7.121103
Si  7.598215 18.490283  7.146572
Si  8.523596 19.089725  4.070726
 O 13.889126 14.906550 11.259434
 O 17.680127  4.968850 12.374057
 O 18.570879 14.906550 11.438515
 O 16.039342 14.906550  5.943675
 O 16.136224  4.968850  4.592234
 O 12.345223 14.906550  5.706857
 O  3.715337  7.561596  8.227191
 O 12.271160 16.954511 10.213350
 O 11.908654 16.388062  7.895698
 O 13.989211 16.797694  6.270368
 O 16.076974 16.788949  7.601808
 O 13.986008  4.968850 12.610875
 O 16.329987 19.066471  8.897245
 O 11.758127 18.847444  9.226471
 O  7.671677  4.968850  7.627543
 O 18.080465  2.635081 11.584793
 O 18.627127  0.154631 12.525669
 O 17.980180 17.310281 12.397258
 O 13.723787  2.376104 11.774409
 O 14.853140 16.768279  9.838387
 O  6.127774  4.968850  2.074966
 O  3.977558  4.968850  7.390725
 O 11.454471  4.968850  4.771315
 O  3.880676 14.906550  8.742166
 O 13.714579 19.875400 11.902552
 O 13.792044 17.281064 12.013094
 O  9.990835  1.236449  9.514628
 O 10.050686 16.431788  9.712644
 O  1.446021  4.968850  1.895885
 O  2.336773 14.906550  0.960343
 O  6.030892 14.906550  0.723525
 O  8.562429 14.906550  8.563085
 O  3.806414  8.856081  0.367896
 O  7.506337  9.170112 10.152412
 O  5.763466  8.661302 12.463930
 O  6.293113 12.313804  1.559991
 O  2.036720  7.372581  0.937142
 O  1.389773 10.092331  0.808731
 O  1.936435 12.572781  1.749607
 O 14.957629  1.174239  9.668373
 O  8.258773  8.909744  4.107929
 O  3.686913  9.128771  4.437155
 O  5.163760  6.830579  3.496013
 O  7.745740  7.016811  3.121050
 O  8.108246  6.450362  5.438702
 O  2.502112 10.705288  3.485212
 O  4.244984 11.214098  5.796730
 O  6.202036 11.019319  7.035096
 O  8.286997 10.907818  5.615516
 O  7.551576 11.015742  2.904232
 O  5.059271 11.111939  3.666027
 O  2.666651  7.128312  3.097181
 O  3.939926  6.851249  5.732592
 O  6.027689  6.859994  7.064032
 O  6.302321  9.937700  1.431848
 O  6.224856  7.343364  1.321306
 O 10.026065 11.174149  3.819772
 O  4.844690 13.044821 10.163213
 O  1.721453  8.967582 12.282716
 O  2.456874  8.859658  9.571432
 O  4.949179  8.763461 10.333227
 O  7.341799 12.747088  9.764381
 O  6.068524 13.024151 12.399792
 O  3.980761 13.015406  0.396832
 O  1.900204 13.425038 12.105902
 O  2.262710 12.858589  9.788250
 O  6.321537 10.746629 11.104355
 O  9.966214  6.494088  3.621756
 O  1.749677 10.965656 10.775129
 O  8.072015  7.302619  8.416807
 O  8.618677  9.783069  7.475931
 O  7.971730 12.502819  7.604342
 O  3.706129  9.937700  8.099048
 O  3.783594 12.532036  7.988506
 O 19.999285  8.701251 10.486972
 O  0.042236 13.381312 10.288956
 O 17.350249 17.066012 10.237219
 O  7.506337  0.767588 10.152412
 O 12.465324  1.078042 10.430168
 O 13.695363  9.128771  2.230045
 O  6.027689  3.077706  7.064032
 O  8.108246  3.487338  5.438702
 O  7.745740  2.920889  3.121050
 O  5.163760  3.107121  3.496013
 O  3.686913  0.808929  4.437155
 O  8.258773  1.027956  4.107929
 O  1.936435 17.240319  1.749607
 O  1.389773 19.720769  0.808731
 O  2.036720  2.565119  0.937142
 O  6.293113 17.499296  1.559991
 O  6.302321  0.000000  1.431848
 O  6.224856  2.594336  1.321306
 O 10.026065 18.638951  3.819772
 O  9.966214  3.443612  3.621756
 O 12.510563 10.705288  3.181988
 O 14.253434 11.214098  0.870470
 O 16.210486 11.019319 12.966504
 O 18.295447 10.907818  1.051684
 O 17.560026 11.015742  3.762968
 O 15.067721 11.111939  3.001173
 O 12.675101  7.128312  3.570019
 O 13.948376  6.851249  0.934608
 O 16.036139  6.859994 12.937568
 O 18.116696  6.450362  1.228498
 O 17.754190  7.016811  3.546150
 O  3.939926  3.086451  5.732592
 O  2.666651  2.809388  3.097181
 O  5.059271 18.701161  3.666027
 O  1.749677 18.847444 10.775129
 O  3.806414  1.081619  0.367896
 O  1.721453  0.970118 12.282716
 O  2.456874  1.078042  9.571432
 O  4.949179  1.174239 10.333227
 O  7.341799 17.066012  9.764381
 O  6.068524 16.788949 12.399792
 O  3.980761 16.797694  0.396832
 O  1.900204 16.388062 12.105902
 O  2.262710 16.954511  9.788250
 O  4.844690 16.768279 10.163213
 O  6.321537 19.066471 11.104355
 O  8.072015  2.635081  8.416807
 O  7.551576 18.797358  2.904232
 O  8.618677  0.154631  7.475931
 O  7.971730 17.310281  7.604342
 O  3.715337  2.376104  8.227191
 O  3.706129 19.875400  8.099048
 O  3.783594 17.281064  7.988506
 O 19.999285  1.236449 10.486972
 O  0.042236 16.431788 10.288956
 O  2.502112 19.107812  3.485212
 O  4.244984 18.599002  5.796730
 O  6.202036 18.793781  7.035096
 O  8.286997 18.905282  5.615516
 O 15.172210  6.830579  3.171187
 O 18.267223  8.909744  2.559271
 O 11.729903  0.970118  7.718884
 O 11.944885 12.572781  4.917593
 O 12.510563 19.107812  3.181988
 O 14.253434 18.599002  0.870470
 O 16.210486 18.793781 12.966504
 O 18.295447 18.905282  1.051684
 O 17.560026 18.797358  3.762968
 O 15.067721 18.701161  3.001173
 O 12.675101  2.809388  3.570019
 O 13.948376  3.086451  0.934608
 O 16.036139  3.077706 12.937568
 O  5.763466  1.276398 12.463930
 O 17.754190  2.920889  3.546150
 O 15.172210  3.107121  3.171187
 O 13.695363  0.808929  2.230045
 O 18.267223  1.027956  2.559271
 O 11.944885 17.240319  4.917593
 O 11.398223 19.720769  5.858469
 O 12.045170  2.565119  5.730058
 O 16.301563 17.499296  5.107209
 O 16.310771  0.000000  5.235352
 O 16.233306  2.594336  5.345894
 O  0.017615 18.638951  2.847428
 O 19.974664  3.443612  3.045444
 O 17.514788  0.767588  9.849188
 O 15.771916  1.276398  7.537670
 O 13.814864  1.081619  6.299304
 O 10.050686 13.381312  9.712644
 O  9.990835  8.701251  9.514628
 O 13.792044 12.532036 12.013094
 O 14.957629  8.763461  9.668373
 O 11.398223 10.092331  5.858469
 O 16.301563 12.313804  5.107209
 O 16.310771  9.937700  5.235352
 O 16.233306  7.343364  5.345894
 O  0.017615 11.174149  2.847428
 O 19.974664  6.494088  3.045444
 O 17.514788  9.170112  9.849188
 O 15.771916  8.661302  7.537670
 O 13.814864  8.856081  6.299304
 O 11.729903  8.967582  7.718884
 O 12.465324  8.859658 10.430168
 O 17.350249 12.747088 10.237219
 O 13.714579  9.937700 11.902552
 O 16.076974 13.024151  7.601808
 O 13.989211 13.015406  6.270368
 O 11.908654 13.425038  7.895698
 O 12.271160 12.858589 10.213350
 O 14.853140 13.044821  9.838387
 O 16.329987 10.746629  8.897245
 O 11.758127 10.965656  9.226471
 O 18.080465  7.302619 11.584793
 O 18.627127  9.783069 12.525669
 O 17.980180 12.502819 12.397258
 O 13.723787  7.561596 11.774409
 O 18.116696  3.487338  1.228498
Tv 20.01690000	0.00000000	0.00000000
Tv 0.00000000	19.87540000	0.00000000
Tv 0.00000000	0.00000000	13.33440000

